notes/week6-examples/Optimization-Codes/AMPL code/IMM-9-FS2014-salt-sand-ordering.txt

for {1..1} {
solve;
display buy;
}


#sensitivity analysis
let cost["sand","A"]:=128;
for {1..16} {
solve;
display buy;
let cost["sand","A"]:=cost["sand","A"]+4;
}

